(set-option :produce-models true)
(set-logic QF_UF)
(declare-fun p12() Bool)
(declare-fun p62() Bool)
(declare-fun p13() Bool)
(declare-fun p0() Bool)
(declare-fun p10() Bool)
(declare-fun p55() Bool)
(declare-fun p67() Bool)
(declare-fun p33() Bool)
(declare-fun p44() Bool)
(declare-fun p20() Bool)
(declare-fun p65() Bool)
(declare-fun p26() Bool)
(declare-fun p56() Bool)
(declare-fun p49() Bool)
(declare-fun p38() Bool)
(declare-fun p23() Bool)
(declare-fun p5() Bool)
(declare-fun p3() Bool)
(declare-fun p16() Bool)
(declare-fun p4() Bool)
(declare-fun p50() Bool)
(declare-fun p60() Bool)
(declare-fun p6() Bool)
(declare-fun p27() Bool)
(declare-fun p36() Bool)
(declare-fun p29() Bool)
(declare-fun p28() Bool)
(declare-fun p57() Bool)
(declare-fun p72() Bool)
(declare-fun p78() Bool)
(declare-fun p35() Bool)
(declare-fun p59() Bool)
(declare-fun p1() Bool)
(declare-fun p61() Bool)
(declare-fun p24() Bool)
(declare-fun p43() Bool)
(declare-fun p21() Bool)
(declare-fun p46() Bool)
(declare-fun p53() Bool)
(declare-fun p63() Bool)
(declare-fun p40() Bool)
(declare-fun p64() Bool)
(declare-fun p69() Bool)
(declare-fun p25() Bool)
(declare-fun p47() Bool)
(declare-fun p52() Bool)
(declare-fun p74() Bool)
(declare-fun p17() Bool)
(declare-fun p18() Bool)
(declare-fun p48() Bool)
(declare-fun p15() Bool)
(declare-fun p68() Bool)
(declare-fun p30() Bool)
(declare-fun p22() Bool)
(declare-fun p19() Bool)
(declare-fun p51() Bool)
(declare-fun p75() Bool)
(declare-fun p45() Bool)
(declare-fun p70() Bool)
(declare-fun p8() Bool)
(declare-fun p79() Bool)
(declare-fun p14() Bool)
(declare-fun p73() Bool)
(declare-fun p54() Bool)
(declare-fun p41() Bool)
(declare-fun p39() Bool)
(declare-fun p11() Bool)
(declare-fun p66() Bool)
(declare-fun p77() Bool)
(declare-fun p9() Bool)
(declare-fun p71() Bool)
(declare-fun p7() Bool)
(declare-fun p42() Bool)
(declare-fun p2() Bool)
(declare-fun p37() Bool)
(declare-fun p31() Bool)
(declare-fun p76() Bool)
(declare-fun p32() Bool)
(declare-fun p34() Bool)
(declare-fun p58() Bool)
(assert
(and (or (not p12) (not p62) (not p13)) (or (not p0) p10 p55) (or p67 (not p33) (not p44)) (or p20 p65 p62) (or p26 (not p56) (not p49)) (or p38 (not p23) p33) (or p5 (not p26) (not p20)) (or (not p3) p16 (not p26)) (or (not p5) p0 p4) (or p33 p50 (not p60)) (or p6 (not p38) (not p27)) (or (not p36) (not p29) (not p0)) (or p29 (not p38) (not p28)) (or (not p57) (not p72) (not p78)) (or (not p35) p67 p59) (or (not p72) p1 (not p61)) (or (not p24) (not p43) p50) (or (not p56) (not p1) p21) (or (not p49) (not p44) (not p4)) (or (not p46) (not p53) p63) (or p16 (not p60) p40) (or p64 (not p29) p69) (or p55 (not p25) (not p47)) (or (not p52) (not p74) (not p52)) (or (not p20) (not p17) p18) (or p78 p48 p3) (or p15 p15 p52) (or (not p68) (not p46) (not p59)) (or (not p18) (not p30) p44) (or (not p36) (not p4) (not p22)) (or p17 p72 p19) (or p51 p1 p75) (or p23 (not p13) (not p13)) (or p45 (not p68) (not p70)) (or (not p36) p8 (not p4)) (or (not p29) p62 p40) (or (not p59) p62 p79) (or p1 (not p14) (not p38)) (or p57 p4 p3) (or p68 (not p30) (not p62)) (or p21 (not p68) (not p3)) (or (not p50) p73 p3) (or p78 (not p24) p19) (or (not p79) p30 p45) (or p62 p70 p27) (or (not p53) p14 (not p54)) (or p36 (not p60) p21) (or p54 p41 p28) (or (not p62) p39 (not p46)) (or (not p10) (not p11) (not p15)) (or p69 p59 (not p14)) (or (not p51) p23 (not p66)) (or p25 p10 (not p43)) (or (not p47) (not p25) (not p16)) (or (not p77) (not p9) p26) (or p59 p78 (not p54)) (or (not p60) (not p45) p51) (or p71 (not p70) p48) (or p44 p39 p57) (or p35 (not p40) (not p63)) (or p65 p8 p15) (or (not p65) p38 p41) (or p77 (not p28) (not p12)) (or p7 (not p74) p15) (or p35 (not p25) p1) (or p42 p60 p2) (or p15 p75 (not p35)) (or p61 p61 p2) (or (not p39) (not p72) p66) (or (not p77) (not p29) (not p78)) (or p37 p36 p78) (or (not p64) p77 p29) (or (not p0) p26 p1) (or (not p73) (not p30) (not p14)) (or (not p19) p48 (not p38)) (or (not p0) p24 (not p8)) (or (not p22) (not p77) (not p27)) (or p9 p75 p74) (or (not p47) p6 p48) (or p30 (not p9) (not p69)) (or (not p28) p23 (not p69)) (or p26 (not p47) (not p3)) (or (not p9) p44 (not p21)) (or p77 (not p26) p2) (or p67 p66 p26) (or p45 p12 p45) (or p1 (not p35) p9) (or p43 p17 (not p17)) (or (not p71) (not p31) (not p73)) (or (not p52) p55 p16) (or (not p11) p27 p62) (or p54 p73 (not p64)) (or (not p77) (not p30) p7) (or (not p18) p30 (not p5)) (or (not p74) p71 (not p60)) (or (not p51) (not p25) (not p76)) (or p29 p32 p21) (or p52 (not p29) p38) (or p46 p37 p6) (or p32 p11 p8) (or p59 p65 p55) (or p51 (not p66) (not p23)) (or (not p51) p69 (not p52)) (or p67 p75 (not p50)) (or (not p37) (not p77) p74) (or (not p20) p42 (not p9)) (or p48 p43 p64) (or p3 p39 p62) (or p33 p37 p72) (or p47 (not p77) p22) (or (not p16) (not p28) p72) (or p28 (not p62) p4) (or p45 (not p22) (not p17)) (or (not p4) (not p60) (not p14)) (or p56 (not p59) (not p39)) (or p8 (not p26) (not p76)) (or (not p43) p15 (not p16)) (or (not p68) p1 (not p8)) (or (not p29) p69 (not p23)) (or p31 (not p47) (not p1)) (or p48 (not p21) (not p48)) (or p51 p31 p77) (or (not p41) (not p72) p0) (or (not p72) (not p46) (not p42)) (or p64 p76 (not p3)) (or p36 p40 (not p71)) (or p2 p35 p14) (or p66 p11 (not p76)) (or (not p65) p28 (not p54)) (or p21 p3 (not p31)) (or (not p63) p51 (not p74)) (or (not p34) p3 p21) (or p17 p37 (not p10)) (or (not p2) (not p40) (not p12)) (or p48 (not p66) (not p78)) (or (not p56) p18 p59) (or p78 (not p41) p58) (or p14 (not p12) (not p0)) (or (not p33) (not p5) (not p29)) (or p5 p72 p75) (or (not p73) (not p60) p45) (or p52 p30 p36) (or p19 p58 (not p55)) (or (not p43) p36 (not p53)) (or p30 p2 (not p32)) (or (not p4) p11 p44) (or (not p46) (not p19) (not p15)) (or (not p0) p65 (not p59)) (or (not p44) p78 p75) (or (not p1) (not p6) (not p14)) (or p62 p10 (not p17)) (or (not p52) (not p22) (not p17)) (or p36 p58 (not p69)) (or (not p64) (not p9) (not p4)) (or (not p1) (not p41) p27) (or p7 p2 (not p24)) (or p56 p47 p61) (or p3 (not p32) (not p26)) (or (not p34) p46 p30) (or (not p0) p12 (not p44)) (or (not p27) p42 (not p78)) (or p43 p75 (not p25)) (or p14 p48 p57) (or (not p79) p33 p22) (or p7 (not p1) (not p39)) (or p37 (not p75) p42) (or (not p72) (not p26) p10) (or p76 (not p15) (not p67)) (or p24 p57 p13) (or p35 (not p61) p62) (or (not p51) p57 p9) (or p48 p38 (not p42)) (or p43 (not p14) p7) (or (not p68) (not p76) (not p34)) (or p3 (not p76) (not p75)) (or (not p56) (not p7) (not p67)) (or p11 p54 (not p13)) (or (not p71) p75 p41) (or p8 p65 (not p24)) (or (not p17) (not p77) (not p44)) (or p1 (not p74) (not p53)) (or p16 p70 p58) (or p16 p14 p2) (or (not p54) p0 p79) (or p63 p41 p2) (or p5 p33 (not p33)) (or (not p0) p11 p43) (or p46 (not p65) p39) (or p16 p2 p17) (or (not p59) (not p2) (not p10)) (or (not p23) (not p19) p41) (or (not p74) p56 (not p41)) (or p6 (not p70) (not p75)) (or p66 (not p49) p32) (or p6 p25 (not p48)) (or (not p20) (not p17) p6) (or (not p24) (not p32) (not p57)) (or p55 p7 (not p11)) (or (not p55) p6 p35) (or (not p42) (not p62) (not p38)) (or (not p30) (not p43) (not p64)) (or (not p16) p44 (not p16)) (or (not p17) p36 (not p64)) (or (not p65) p62 (not p7)) (or (not p4) (not p6) p33) (or p42 p65 p11) (or p30 (not p63) (not p0)) (or (not p14) (not p51) p12) (or p32 p77 (not p52)) (or p8 (not p38) p48) (or (not p1) (not p32) (not p0)) (or (not p7) p41 p74) (or (not p40) (not p47) (not p42)) (or (not p77) p45 p72) (or (not p47) (not p30) (not p39)) (or p0 (not p42) (not p22)) (or p28 p16 (not p5)) (or (not p64) p36 p64) (or p1 (not p42) p76) (or (not p41) p40 (not p18)) (or (not p4) p2 (not p45)) (or p23 p42 p3) (or (not p59) p78 (not p26)) (or p59 p42 p29) (or p31 (not p28) (not p8)) (or (not p68) p64 (not p15)) (or p4 (not p74) (not p11)) (or p27 (not p0) (not p2)) (or p16 (not p47) (not p13)) (or (not p69) (not p8) p45) (or p57 (not p3) p38) (or (not p15) (not p74) (not p48)) (or p29 (not p73) p62) (or p16 (not p19) (not p66)) (or p72 p50 (not p14)) (or p4 (not p43) (not p63)) (or (not p47) (not p48) (not p9)) (or p4 p75 p28) (or p78 p45 p33) (or (not p58) p35 (not p11)) (or (not p24) p5 (not p66)) (or (not p67) p8 (not p31)) (or p22 p13 (not p49)) (or (not p46) p2 p2) (or p77 (not p74) p23) (or (not p3) (not p7) p37) (or p55 p4 (not p11)) (or (not p78) (not p64) (not p50)) (or p24 (not p41) (not p24)) (or p76 p30 p28) (or (not p32) (not p18) p57) (or (not p19) p18 (not p6)) (or (not p49) p10 (not p43)) (or (not p20) (not p36) (not p2)) (or p75 p43 (not p46)) (or (not p65) (not p16) p38) (or (not p17) (not p40) p0) (or (not p47) (not p21) (not p3)) (or (not p18) (not p31) p21) (or p17 (not p41) p53) (or p59 p41 (not p79)) (or p43 (not p26) p28) (or p26 p62 (not p14)) (or (not p54) (not p64) p60) (or (not p1) (not p16) (not p50)) (or p31 (not p62) (not p32)) (or (not p19) p62 (not p47)) (or p70 (not p72) p30) (or (not p24) (not p9) p24) (or p44 p5 (not p64)) (or (not p17) p52 (not p26)) (or p39 (not p4) p12) (or (not p64) p24 (not p17)) (or (not p4) p46 p64) (or (not p66) p4 (not p41)) (or p18 p66 p48) (or (not p58) p22 p24) (or (not p31) (not p32) p60) (or p20 p46 (not p74)) (or (not p77) p30 p63) (or (not p46) (not p17) (not p73)) (or (not p5) (not p26) (not p2)) (or (not p10) p14 p0) (or p26 (not p75) p46) (or p17 p54 p7) (or (not p46) p28 (not p65)) (or (not p3) (not p38) p48) (or p37 p68 (not p47)) (or (not p9) (not p6) p50) (or (not p62) (not p75) (not p24)) (or p15 p19 p76) (or p66 p72 p60) (or p70 (not p58) p10) (or p36 p41 p34) (or p22 (not p1) (not p24)) (or p44 p76 (not p8)) (or p21 (not p29) (not p10)) (or p42 p74 p54) (or p14 p21 p62) (or (not p49) p52 (not p31)) (or p11 (not p12) p77) (or (not p31) (not p42) p67) (or (not p49) (not p15) (not p72)) (or (not p34) p34 p60) (or (not p67) (not p67) p31) (or p40 (not p3) (not p48)) (or p65 p65 p66) (or p0 p7 p79) (or (not p76) p0 p73) (or p45 p37 p25) (or p18 (not p22) p65) (or (not p25) (not p47) p41) (or p12 p20 (not p19)) (or p24 p21 (not p46)) (or (not p26) p10 (not p28)) (or p25 (not p47) p71) (or (not p18) p51 p15) (or (not p1) p47 (not p79)) (or (not p78) p43 (not p61)) (or p69 p34 p3) (or p3 p34 p7) (or p13 (not p47) (not p26)) (or p20 p67 p43) (or (not p26) p26 p50) (or (not p75) (not p31) p11) (or (not p46) p17 (not p29)) (or (not p9) (not p74) p79) (or p12 (not p10) p31) (or (not p22) (not p10) (not p50)) (or p44 (not p18) p31) (or p38 p19 p73) (or p2 (not p24) (not p46)) (or (not p36) (not p5) (not p34)) (or p40 (not p8) p65) (or (not p12) p74 p6) (or p70 p41 (not p69)) (or (not p14) (not p67) p7))
)
(check-sat)
(get-model)
